param L := 893;

set MODULI := M1 M2 M3 M4 M5 M6 M7 M8 M9 M10 ;

param d :=
  M1 7
  M2 1
  M3 6
  M4 6
  M5 1
  M6 1
  M7 4
  M8 1
  M9 3
  M10 3
;

param l :=
  M1 17
  M2 31
  M3 46
  M4 31
  M5 37
  M6 32
  M7 45
  M8 47
  M9 27
  M10 42
;
